
Gurobi 10.0.3 (win64) logging started Sun Dec 17 23:19:17 2023

Set parameter LogFile to value "./resultados/log.log"
Set parameter TimeLimit to value 600
Gurobi Optimizer version 10.0.3 build v10.0.3rc0 (win64)

CPU model: AMD Ryzen 5 5600 6-Core Processor, instruction set [SSE2|AVX|AVX2]
Thread count: 6 physical cores, 12 logical processors, using up to 12 threads

Academic license 2433534 - for non-commercial use only - registered to gm___@gmail.com
Optimize a model with 25625 rows, 25000 columns and 3151335 nonzeros
Model fingerprint: 0xabf6cf94
Variable types: 0 continuous, 25000 integer (25000 binary)
Coefficient statistics:
  Matrix range     [1e+00, 1e+02]
  Objective range  [5e-01, 5e+00]
  Bounds range     [1e+00, 1e+00]
  RHS range        [1e+00, 1e+00]
Found heuristic solution: objective 69197.000000
Presolve removed 25499 rows and 12499 columns
Presolve time: 1.24s
Presolved: 126 rows, 12501 columns, 11519 nonzeros
Variable types: 0 continuous, 12501 integer (12500 binary)
Root relaxation presolved: 220 rows, 12501 columns, 21285 nonzeros


Root relaxation: objective 8.500000e+01, 151 iterations, 0.01 seconds (0.01 work units)

    Nodes    |    Current Node    |     Objective Bounds      |     Work
 Expl Unexpl |  Obj  Depth IntInf | Incumbent    BestBd   Gap | It/Node Time

     0     0   85.00000    0    4 69197.0000   85.00000   100%     -    2s
H    0     0                    29364.000000   85.00000   100%     -    4s
H    0     0                     600.0000000   91.75000  84.7%     -    6s
     0     0   91.75000    0  119  600.00000   91.75000  84.7%     -    6s
H    0     0                     311.0000000   91.75000  70.5%     -    8s
     0     2   91.75000    0  119  311.00000   91.75000  70.5%     -   10s
H    1     4                     267.0000000   91.75000  65.6%   172   12s
H    3     8                     252.0000000   91.75000  63.6%   110   20s
H    7    14                     221.0000000   91.75000  58.5%  78.3   38s
    11    14   93.25000    3  147  221.00000   91.75000  58.5%  77.5   45s
H   13    20                     206.0000000   91.75000  55.5%  70.4   53s
    14    20   92.75000    4  171  206.00000   91.75000  55.5%  72.4   56s
H   15    20                     202.0000000   91.75000  54.6%  67.6   60s
    17    20   92.75000    4  165  202.00000   91.75000  54.6%  71.9   71s
    19    26   92.75000    5  161  202.00000   92.25000  54.3%  69.8   79s
    21    26   93.50000    5  155  202.00000   92.75000  54.1%  69.7   88s
H   25    32                     193.0000000   92.75000  51.9%  66.3   99s
    30    32   93.75000    5  173  193.00000   93.00000  51.8%  71.9  110s
    31    38   93.25000    7  171  193.00000   93.00000  51.8%  70.6  115s
    33    38   93.25000    7  170  193.00000   93.00000  51.8%  68.2  121s
    35    38   94.25000    4  170  193.00000   93.00000  51.8%  67.5  125s
    37    44   93.66667    8  166  193.00000   93.00000  51.8%  68.5  130s
H   43    50                     191.0000000   93.25000  51.2%  65.0  145s
H   46    50                     189.0000000   93.66667  50.4%  65.7  153s
    47    50   94.30000    9  167  189.00000   93.66667  50.4%  67.0  156s
    49    56   94.30000    9  172  189.00000   93.66667  50.4%  66.6  162s
    51    56   94.30000    9  167  189.00000   93.75000  50.4%  66.8  174s
H   53    56                     186.0000000   93.75000  49.6%  65.4  183s
    55    62   94.00000    6  159  186.00000   93.75000  49.6%  65.7  193s
    56    62   94.50000    4  172  186.00000   93.75000  49.6%  66.4  195s
    59    62   94.50000    3  160  186.00000   93.75000  49.6%  66.7  208s
    61    68   94.50000    6  161  186.00000   93.75000  49.6%  66.1  215s
    67    74   94.50000    9  180  186.00000   93.91667  49.5%  67.6  237s
    73    80   94.00000    7  175  186.00000   94.00000  49.5%  67.2  249s
    74    80   95.00000    7  181  186.00000   94.00000  49.5%  67.1  251s
    75    80   95.50000    3  165  186.00000   94.00000  49.5%  68.1  255s
    76    80   95.00000    7  165  186.00000   94.00000  49.5%  68.0  261s
    77    80   95.00000    7  164  186.00000   94.00000  49.5%  67.4  267s
    79    86   94.00000    7  170  186.00000   94.00000  49.5%  66.8  276s
    84    86   94.00000    8  170  186.00000   94.00000  49.5%  66.0  290s
    86    92   94.00000    8  161  186.00000   94.00000  49.5%  65.5  297s
    91    98   94.00000   10  158  186.00000   94.00000  49.5%  63.6  312s
    92    98   94.50000    8  156  186.00000   94.00000  49.5%  63.7  316s
    94    98   94.00000    9  160  186.00000   94.00000  49.5%  63.4  324s
    95    98   94.00000   10  167  186.00000   94.00000  49.5%  62.9  327s
H   97   104                     185.0000000   94.00000  49.2%  61.9  335s
   100   104   94.00000   11  165  185.00000   94.00000  49.2%  60.7  345s
   103   110   94.00000    8  164  185.00000   94.00000  49.2%  59.8  524s
   104   110   95.00000   10  162  185.00000   94.00000  49.2%  59.5  528s
H  106   110                     183.0000000   94.00000  48.6%  58.6  534s
   108   110   94.83333   12  160  183.00000   94.00000  48.6%  58.3  538s
H  109   116                     174.0000000   94.00000  46.0%  57.8  543s
   110   116   94.00000   10  162  174.00000   94.00000  46.0%  57.7  545s
   114   116   94.00000   12  158  174.00000   94.00000  46.0%  56.5  556s
   115   122   94.00000   10  164  174.00000   94.00000  46.0%  56.1  566s
   118   122   94.00000   13  159  174.00000   94.00000  46.0%  55.3  572s
   121   128   94.00000   11  172  174.00000   94.00000  46.0%  54.6  581s
   124   128   94.50000   11  158  174.00000   94.00000  46.0%  53.9  589s
   127   132   95.00000   10  153  174.00000   94.00000  46.0%  53.5  604s
   128   132   94.25000    7  163  174.00000   94.00000  46.0%  53.4  606s

Cutting planes:
  Lazy constraints: 7786

Explored 131 nodes (7476 simplex iterations) in 615.75 seconds (19.43 work units)
Thread count was 12 (of 12 available processors)

Solution count 10: 174 183 185 ... 221

Time limit reached
Best objective 1.740000000000e+02, best bound 9.400000000000e+01, gap 45.9770%

User-callback calls 1063, time in user-callback 561.31 sec
